NAME : amz2538.106942_106942.tour
COMMENT : Cost = 106942_106942
COMMENT : Found by LKH-AMZ [Keld Helsgaun] Sun May 11 15:16:15 2025
COMMENT : TW viol.: 0 #: 0
TYPE : TOUR
DIMENSION : 136
TOUR_SECTION
83
77
56
43
42
70
107
41
84
2
24
12
13
68
97
114
45
5
31
27
127
52
130
22
61
33
60
3
7
48
20
66
124
106
109
10
1
125
71
57
102
46
87
75
34
18
49
64
92
6
96
91
128
94
62
81
79
100
54
78
88
38
69
50
51
40
119
103
120
4
104
98
37
80
55
133
132
117
93
74
121
16
53
29
76
82
28
23
36
9
135
58
35
15
63
115
86
110
108
65
30
131
105
95
44
134
85
118
123
90
111
8
67
116
17
136
26
14
39
32
99
129
101
11
21
113
19
25
89
59
126
122
112
72
73
47
-1
EOF
